p tw 39 94
0 1
0 17
0 10
0 4
0 16
0 21
0 30
1 4
1 8
1 20
1 16
1 28
1 7
2 3
2 8
3 31
3 32
3 33
3 27
3 28
3 7
3 35
4 16
4 6
4 28
5 6
5 22
5 38
6 13
7 8
7 27
7 13
7 11
7 22
8 15
8 32
8 25
8 30
9 10
9 21
9 35
10 29
10 11
10 21
10 35
11 12
11 37
11 34
11 38
12 35
12 19
12 23
12 16
13 19
14 15
14 18
14 32
14 34
14 24
14 25
15 20
15 24
15 35
15 23
16 21
16 28
17 19
17 28
17 21
19 36
19 21
20 21
20 24
20 23
20 29
20 22
20 25
20 26
21 22
21 28
21 34
22 26
23 24
24 25
25 26
25 34
25 32
25 38
26 30
26 32
28 35
31 34
31 38
32 33
